(set-logic QF_S)
(declare-fun var0 () String)
(declare-fun var1 () String)
(declare-fun var2 () String)
(declare-fun var3 () Int)
(declare-fun var4 () String)
(declare-fun var5 () Int)
(declare-fun var6 () Int)
(declare-fun var7 () Int)
(assert (str.contains (str.replace var0 var1 var2) (str.at "C" var3)))
(assert (str.prefixof (str.at var4 var5) (str.at var0 var6)))
(assert (<= (str.indexof "" var4 var7) (str.len "jPwK@u,|C")))
(assert (str.contains (str.replace var1 var4 var2) (str.substr (str.at var2 var3) (str.len var0) (str.indexof var4 var0 var6))))
(check-sat)